6006.0 325441.0 
6117.0 317735.0 
6071.0 318665.0 
6026.0 320879.0 
6053.0 319463.0 
6008.0 322678.0 
6019.0 320885.0 
6074.0 317826.0 
6050.0 319592.0 
6045.0 319930.0 
6028.0 319986.0 
5997.0 325653.0 
